Set parameter LicenseID to value 2609176
Set parameter TimeLimit to value 1800
Gurobi Optimizer version 11.0.3 build v11.0.3rc0 (linux64 - "Debian GNU/Linux 12 (bookworm)")

CPU model: AMD EPYC 7B12, instruction set [SSE2|AVX|AVX2]
Thread count: 4 physical cores, 8 logical processors, using up to 8 threads

Optimize a model with 425508 rows, 180625 columns and 77610453 nonzeros
Model fingerprint: 0xcf194dbf
Variable types: 0 continuous, 180625 integer (180625 binary)
Coefficient statistics:
  Matrix range     [1e+00, 1e+00]
  Objective range  [0e+00, 0e+00]
  Bounds range     [1e+00, 1e+00]
  RHS range        [1e+00, 1e+00]
Presolve removed 213 rows and 213 columns (presolve time = 5s) ...
Presolve removed 213 rows and 213 columns (presolve time = 11s) ...
Presolve removed 213 rows and 213 columns (presolve time = 15s) ...
Presolve removed 213 rows and 213 columns (presolve time = 20s) ...
Presolve removed 213 rows and 213 columns (presolve time = 25s) ...
Presolve removed 213 rows and 213 columns (presolve time = 30s) ...
Presolve removed 213 rows and 213 columns (presolve time = 35s) ...
Presolve removed 2058 rows and 213 columns (presolve time = 40s) ...
Presolve removed 2058 rows and 213 columns (presolve time = 45s) ...
Presolve removed 2058 rows and 213 columns (presolve time = 51s) ...
Presolve removed 2058 rows and 213 columns (presolve time = 57s) ...
Presolve removed 2058 rows and 213 columns (presolve time = 62s) ...
Presolve removed 2058 rows and 213 columns (presolve time = 65s) ...
Presolve removed 2058 rows and 213 columns (presolve time = 70s) ...
Error: invalid user locale; possible fix is to set the system environment
       variable 'LC_ALL' to a valid locale (e.g., to 'C')
Presolve removed 2058 rows and 213 columns (presolve time = 75s) ...
Presolve removed 2058 rows and 213 columns (presolve time = 80s) ...
Presolve removed 2058 rows and 213 columns (presolve time = 85s) ...
Presolve removed 2058 rows and 213 columns (presolve time = 90s) ...
Presolve removed 2058 rows and 213 columns (presolve time = 95s) ...
Presolve removed 2058 rows and 213 columns (presolve time = 100s) ...
Presolve removed 2058 rows and 213 columns (presolve time = 105s) ...
Presolve removed 2058 rows and 213 columns (presolve time = 110s) ...
Presolve removed 2058 rows and 213 columns (presolve time = 115s) ...
Presolve removed 2058 rows and 213 columns (presolve time = 120s) ...
Presolve removed 2058 rows and 213 columns (presolve time = 125s) ...
Presolve removed 2058 rows and 213 columns (presolve time = 130s) ...
Presolve removed 2058 rows and 213 columns (presolve time = 135s) ...
Presolve removed 2058 rows and 213 columns (presolve time = 142s) ...
Presolve removed 2058 rows and 213 columns
Presolve time: 141.60s
Presolved: 423450 rows, 180412 columns, 77212599 nonzeros
Variable types: 0 continuous, 180412 integer (180412 binary)

Deterministic concurrent LP optimizer: primal simplex, dual simplex, and barrier
Showing barrier log only...

